
  22   10
  10   10   10   10   10   10   10   10   10   10

   0   0   0   0   0   0   0   0   0   0   0   6 2 3 8 9 10 21 
   2   0   0   0   0   0   0   0   0   0  10   3 20 19 4 
   2   0   0   0   0   0   0   0   0  10   0   2 19 5 
  10   0   0   0   0  10   0   0   0   0   0   1 5 
   6   0   0  10   0   0   0   0   0   0   0   2 18 6 
   2   0  10   0   0   0   0   0   0   0   0   1 7 
   9   0   0   0   0   0   0   0   0  10   0   2 17 11 
   6   0   0   0   0   0   0   0  10   0   0   4 20 18 16 13 
   2   0   0   0   0   0   0   0   0   0  10   4 19 17 16 13 
   5   0   0   0   0  10   0   0   0   0   0   4 18 17 16 13 
   7   0   0   0   0   0   0  10   0   0   0   1 12 
   6  10   0   0   0   0   0   0   0   0   0   2 16 13 
  10   0   0   0   0  10   0   0   0   0   0   1 14 
   6   0   0   0  10   0   0   0   0   0   0   1 15 
   2   0   0   0   0   0   0   0   0  10   0   1 22
   7   0   0   0   0   0   0  10   0   0   0   1 22
   5   0  10   0   0   0   0   0   0   0   0   1 22
   9   0   0   0   0   0   0   0  10   0   0   1 22
   8   0   0   0   0   0   0  10   0   0   0   1 22
   4   0   0  10   0   0   0   0   0   0   0   1 22
   2   0   0   0   0   0   0   0   0  10   0   1 22
   0   0   0   0   0   0   0   0   0   0   0   0 
